qbf_easy_train/easy_2621_SAT.qdimacs
p cnf 21 48
a 1 10 15 0
e 2 3 4 5 6 7 8 9 11 12 13 14 16 17 18 19 20 21 0
-3 -1 0
-3 -2 0
1 2 3 0
4 -5 -6 0
-4 5 -6 0
4 5 6 0
-4 -5 6 0
-1 -7 0
1 -7 0
10 -8 0
10 9 0
8 -9 -10 0
-11 7 0
-11 -10 0
-7 10 11 0
-13 12 0
-13 9 0
-12 -9 13 0
-1 14 -15 0
1 -14 -15 0
-1 -14 15 0
1 14 15 0
-13 15 -16 0
13 -15 -16 0
-13 -15 16 0
13 15 16 0
17 -11 0
17 -16 0
11 16 -17 0
8 -1 -18 0
-8 1 -18 0
8 1 18 0
-8 -1 18 0
-19 -17 0
-19 18 0
17 -18 19 0
-6 19 -20 0
6 -19 -20 0
-6 -19 20 0
6 19 20 0
21 -3 0
21 -20 0
3 20 -21 0
-7 -6 -20 0
17 -19 2 5 14 0
1 9 6 -3 -4 14 0
5 8 19 13 4 16 -18 0
21 0
