sat_easy_train/easy_2621_SAT.dimacs
p cnf 117 392
-3 1 0
-3 2 0
-1 -2 3 0
-6 4 0
-6 5 0
-4 -5 6 0
6 7 -8 0
-6 -7 -8 0
6 -7 8 0
-6 7 8 0
11 -9 0
11 10 0
9 -10 -11 0
-12 -8 0
-12 11 0
8 -11 12 0
-13 -1 0
-13 12 0
1 -12 13 0
-14 2 0
-14 -13 0
-2 13 14 0
12 -14 -15 0
-12 14 -15 0
12 14 15 0
-12 -14 15 0
-16 3 0
-16 -15 0
-3 15 16 0
-4 -2 -17 0
4 2 -17 0
-4 2 17 0
4 -2 17 0
12 17 -18 0
-12 -17 -18 0
12 -17 18 0
-12 17 18 0
19 12 0
19 -18 0
-12 18 -19 0
19 20 -21 0
-19 -20 -21 0
19 -20 21 0
-19 20 21 0
-23 -5 0
-23 22 0
5 -22 23 0
-24 -5 0
-24 -11 0
5 11 24 0
25 10 0
25 24 0
-10 -24 -25 0
23 -25 -26 0
-23 25 -26 0
23 25 26 0
-23 -25 26 0
-21 26 -27 0
21 -26 -27 0
-21 -26 27 0
21 26 27 0
30 28 0
30 29 0
-28 -29 -30 0
-29 -20 -31 0
29 20 -31 0
-29 20 31 0
29 -20 31 0
-32 9 0
-32 29 0
-9 -29 32 0
10 -5 -33 0
-10 5 -33 0
10 5 33 0
-10 -5 33 0
-10 33 -34 0
10 -33 -34 0
-10 -33 34 0
10 33 34 0
-35 32 0
-35 34 0
-32 -34 35 0
31 -35 -36 0
-31 35 -36 0
31 35 36 0
-31 -35 36 0
37 30 0
37 -36 0
-30 36 -37 0
-38 -27 0
-38 37 0
27 -37 38 0
16 -38 -39 0
-16 38 -39 0
16 38 39 0
-16 -38 39 0
-40 -24 0
-40 -22 0
24 22 40 0
41 -31 0
41 40 0
31 -40 -41 0
42 33 0
42 41 0
-33 -41 -42 0
44 -43 0
44 6 0
43 -6 -44 0
45 -42 0
45 -44 0
42 44 -45 0
28 17 -46 0
-28 -17 -46 0
28 -17 46 0
-28 17 46 0
-47 45 0
-47 46 0
-45 -46 47 0
48 35 0
48 -5 0
-35 5 -48 0
33 -48 -49 0
-33 48 -49 0
33 48 49 0
-33 -48 49 0
-33 1 -50 0
33 -1 -50 0
-33 -1 50 0
33 1 50 0
-50 51 -52 0
50 -51 -52 0
-50 -51 52 0
50 51 52 0
53 40 0
53 40 0
-40 -53 0
53 54 -55 0
-53 -54 -55 0
53 -54 55 0
-53 54 55 0
-55 -13 -56 0
55 13 -56 0
-55 13 56 0
55 -13 56 0
-56 53 -57 0
56 -53 -57 0
-56 -53 57 0
56 53 57 0
-58 57 0
-58 12 0
-57 -12 58 0
-59 -1 0
-59 58 0
1 -58 59 0
60 -52 0
60 59 0
52 -59 -60 0
-61 -14 0
-61 8 0
14 -8 61 0
14 -17 -62 0
-14 17 -62 0
14 17 62 0
-14 -17 62 0
63 -61 0
63 62 0
61 -62 -63 0
60 63 -64 0
-60 -63 -64 0
60 -63 64 0
-60 63 64 0
-65 49 0
-65 64 0
-49 -64 65 0
1 55 -66 0
-1 -55 -66 0
1 -55 66 0
-1 55 66 0
-67 -8 0
-67 -66 0
8 66 67 0
68 -48 0
68 -41 0
48 41 -68 0
69 -67 0
69 -68 0
67 68 -69 0
71 -22 0
71 -51 0
22 51 -71 0
-72 -70 0
-72 -71 0
70 71 72 0
-73 -69 0
-73 -72 0
69 72 73 0
-74 10 0
-74 7 0
-10 -7 74 0
75 -74 0
75 9 0
74 -9 -75 0
-76 -4 0
-76 -18 0
4 18 76 0
-77 -75 0
-77 76 0
75 -76 77 0
-78 54 0
-78 -5 0
-54 5 78 0
79 -66 0
79 -51 0
66 51 -79 0
-80 -79 0
-80 68 0
79 -68 80 0
78 80 -81 0
-78 -80 -81 0
78 -80 81 0
-78 80 81 0
-5 67 -82 0
5 -67 -82 0
-5 -67 82 0
5 67 82 0
25 20 -83 0
-25 -20 -83 0
25 -20 83 0
-25 20 83 0
-82 -83 -84 0
82 83 -84 0
-82 83 84 0
82 -83 84 0
81 -84 -85 0
-81 84 -85 0
81 84 85 0
-81 -84 85 0
86 77 0
86 -85 0
-77 85 -86 0
-73 86 -87 0
73 -86 -87 0
-73 -86 87 0
73 86 87 0
-65 87 -88 0
65 -87 -88 0
-65 -87 88 0
65 87 88 0
-89 9 0
-89 -14 0
-9 14 89 0
90 89 0
90 12 0
-89 -12 -90 0
-91 2 0
-91 -4 0
-2 4 91 0
-55 -91 -92 0
55 91 -92 0
-55 91 92 0
55 -91 92 0
93 90 0
93 92 0
-90 -92 -93 0
94 -88 0
94 -93 0
88 93 -94 0
95 -47 0
95 -94 0
47 94 -95 0
96 14 0
96 54 0
-14 -54 -96 0
-97 -96 0
-97 48 0
96 -48 97 0
29 51 -98 0
-29 -51 -98 0
29 -51 98 0
-29 51 98 0
-99 -35 0
-99 -98 0
35 98 99 0
-43 -23 -100 0
43 23 -100 0
-43 23 100 0
43 -23 100 0
-99 100 -101 0
99 -100 -101 0
-99 -100 101 0
99 100 101 0
-102 -97 0
-102 101 0
97 -101 102 0
103 95 0
103 102 0
-95 -102 -103 0
104 -9 0
104 -50 0
9 50 -104 0
-105 6 0
-105 104 0
-6 -104 105 0
-106 55 0
-106 70 0
-55 -70 106 0
108 -74 0
108 17 0
74 -17 -108 0
107 108 -109 0
-107 -108 -109 0
107 -108 109 0
-107 108 109 0
110 -106 0
110 109 0
106 -109 -110 0
111 105 0
111 110 0
-105 -110 -111 0
-112 -4 0
-112 31 0
4 -31 112 0
-51 58 -113 0
51 -58 -113 0
-51 -58 113 0
51 58 113 0
112 113 -114 0
-112 -113 -114 0
112 -113 114 0
-112 113 114 0
115 111 0
115 -114 0
-111 114 -115 0
116 -103 0
116 -115 0
103 115 -116 0
39 -116 -117 0
-39 116 -117 0
39 116 117 0
-39 -116 117 0
-57 41 113 77 -37 0
59 71 40 -75 -86 0
24 66 47 -7 30 -1 0
20 -11 -24 -97 27 0
98 -67 112 0
-51 111 0
-2 102 -53 -75 -42 -33 0
-64 -2 0
-92 -79 105 -55 0
-101 106 0
50 12 104 -15 -88 101 0
-8 63 -96 -24 0
-39 -116 31 0
55 -27 79 0
78 65 -31 0
-98 39 -108 19 60 62 0
-16 64 22 -60 0
-73 -67 0
-9 116 69 99 0
3 -97 -91 31 0
-112 -38 39 0
-31 -97 0
114 60 -109 -55 0
36 88 -39 0
111 -36 -60 4 -96 0
32 49 0
63 28 -37 52 103 0
74 82 4 1 -33 0
58 -116 52 -109 0
38 -63 -93 -39 -28 0
-73 77 -88 -59 3 39 0
-5 -50 -9 -49 117 0
71 35 93 -86 5 0
82 -99 54 116 106 0
-98 37 106 -49 0
45 72 -41 53 0
-99 -63 -37 67 -26 0
-89 108 -115 6 -19 0
-6 -10 0
42 65 72 -39 0
-94 -60 -55 0
-59 103 0
-98 76 0
83 16 -10 -74 9 0
-9 6 -116 28 -39 112 0
-78 116 0
49 72 60 2 -93 -30 0
67 -57 -46 -40 -105 0
-10 -73 16 8 52 0
-55 -73 28 32 -90 108 0
16 -75 0
117 0
